32	5
11	18	14	20	1
0	0	0	0	0	0	2	2	3
5	0	0	0	0	0	1	4
10	11	18	14	20	1	1	5
3	0	0	0	0	0	1	5
10	11	18	14	20	1	2	6	7
5	5	0	8	1	0	4	8	9	11	12
8	1	17	6	4	0	3	8	10	11
10	0	0	0	1	0	12	13	14	15	16	17	18	19	21	22	23	24	25
4	1	1	6	16	0	12	13	14	15	16	17	19	20	21	22	23	25	26
3	6	18	3	19	1	13	13	14	15	16	17	18	19	21	22	23	24	25	26
4	0	16	0	1	0	13	13	14	15	16	17	18	19	20	22	23	24	25	26
7	10	1	8	3	1	11	13	14	15	16	17	18	20	22	23	24	26
10	2	3	5	9	1	3	27	28	29
10	4	7	1	5	0	3	27	28	29
8	4	7	1	1	0	3	27	28	29
9	1	1	1	7	0	3	27	28	29
3	4	11	1	1	0	3	27	28	29
2	5	8	8	1	0	3	27	28	29
5	0	16	1	5	0	3	27	28	29
3	5	0	11	1	0	3	27	28	29
4	1	1	3	5	0	3	27	28	29
5	6	4	10	5	1	2	28	29
10	6	9	6	13	1	2	27	28
2	0	8	2	1	0	2	27	28
4	0	6	1	12	0	2	28	29
9	1	1	2	8	0	2	27	29
4	5	12	4	8	0	2	30	31
8	1	5	4	6	1	1	31
2	5	1	6	6	0	1	30
4	5	1	6	6	0	1	32
5	6	17	8	14	1	1	32
0	0	0	0	0	0	0
